NAME : XML100_1243_12
DIMENSION : 101
NB_CLUSTERS : 4
CLUSTERING_ALG : KMeans
CLUSTERING_PARAMS : k(3)
CLUSTERS
1 0
2 2 7 13 14 16 17 20 28 30 33 38 39 40 42 44 45 48 50 53 55 57 58 60 62 63 67 70 75 77 79 81 85 87 88 90 97 98 100
3 1 4 6 8 10 11 12 18 19 23 24 25 26 27 29 31 34 35 37 41 43 51 52 54 56 59 72 80 83 84 86 91 92 95 96
4 3 5 9 15 21 22 32 36 46 47 49 61 64 65 66 68 69 71 73 74 76 78 82 89 93 94 99
EOF